// Dezyne --- Dezyne command line tools
//
// Copyright © 2015 Jan Nieuwenhuizen <janneke@gnu.org>
// Copyright © 2015 Paul Hoogendijk <paul.hoogendijk@verum.com>
//
// This file is part of Dezyne.
//
// Dezyne is free software: you can redistribute it and/or modify it
// under the terms of the GNU Affero General Public License as
// published by the Free Software Foundation, either version 3 of the
// License, or (at your option) any later version.
//
// Dezyne is distributed in the hope that it will be useful, but
// WITHOUT ANY WARRANTY; without even the implied warranty of
// MERCHANTABILITY or FITNESS FOR A PARTICULAR PURPOSE.  See the GNU
// Affero General Public License for more details.
//
// You should have received a copy of the GNU Affero General Public
// License along with Dezyne.  If not, see <http://www.gnu.org/licenses/>.
//
// Commentary:
//
// Code:

// /////////////////////////////////////////////////////////////////////////////
// 
// File generated by   : Verum ASD:Suite Release 0, version 0.0.0.0
// Language            : asd
// 
// Model name          : OutParam
// Model file          : OutParam.im
// Model last updated  : 2015-Oct-29 15:13:49
// Model fingerprint   : 65B99F33
// 
// Version             : 1.0
// Project             : 
// Author              : 
// Execution model     : Multi-threaded
// Broadcasting        : No
// 
// /////////////////////////////////////////////////////////////////////////////


import GlobalTypes.dzn;

// used types:
// extern xint $int$;

interface IOutParam
{
  // Application interface IOutParam
  in void e_out(out xint number); /*- Happy flow -*/ 
  in void e_out_async(out xint number); /*- Happy flow -*/ 
  in void e_inout(inout xint number); /*- Happy flow -*/ 
  in void e_inout_async(inout xint number); /*- Happy flow -*/ 
  in void e_outdated(out xint number); /*- Exceptional flow: Output outdated number. (VoidReply before getting new data.) -*/ 

  behaviour
  {
    enum States {Available};

    States state_ = States.Available;

    [state_.Available]
    {
      on e_out:
      {
      }
      on e_out_async:
      {
      }
      on e_inout:
      {
      }
      on e_inout_async:
      {
      }
      on e_outdated:
      {
      }
    }

  }
}
